10J3M/DAT/10J3MNNL-11.dat
10 3
25.6425 25.6425
21.9406 21.9406
22.2226 22.2226
20.4844 20.4844
24.9588 24.9588
25.6674 25.6674
19.661 19.661
31.0792 31.0792
30.2073 30.2073
23.915 23.915
245.7788