10J3M/SOL/10J3MNNL-11.sol
solution status: optimal solution found
objective value:                     81.9262666666667
x#1#2                                               1 	(obj:0)
x#2#1                                               1 	(obj:0)
x#3#1                                               1 	(obj:0)
x#4#2                                               1 	(obj:0)
x#5#2                                               1 	(obj:0)
x#6#2                                0.19587622171834 	(obj:0)
x#6#3                                0.80412377828166 	(obj:0)
x#7#1                                               1 	(obj:0)
x#8#3                                               1 	(obj:0)
x#9#3                                               1 	(obj:0)
x#10#1                              0.756933584221897 	(obj:0)
x#10#2                              0.243066415778103 	(obj:0)
z                                    81.9262666666667 	(obj:1)
